NAME: Tnm199
COMMENT: Imported from tnm log files (not double checked for validity should be 3139778)
TYPE: TOUR
DIMENSION: 199
TOUR_SECTION:
1
165
162
159
156
153
150
147
144
141
138
135
132
129
126
123
120
117
114
111
108
105
102
99
96
93
90
87
84
176
179
182
185
188
191
194
197
192
195
198
199
196
193
190
187
184
181
178
175
81
78
75
72
69
66
63
60
57
54
51
48
45
42
39
36
33
30
27
24
21
18
15
12
9
6
3
164
161
158
166
155
152
149
169
172
146
143
140
137
134
131
128
125
122
119
116
113
110
107
104
101
98
95
92
89
86
83
80
77
74
71
68
65
62
59
56
53
50
47
44
41
38
35
32
29
26
23
189
186
183
180
177
174
171
20
17
14
11
8
168
5
2
163
160
157
154
151
148
145
142
139
136
133
130
127
124
121
118
115
112
109
106
103
100
97
94
91
88
85
82
79
76
73
70
67
64
61
58
55
52
49
46
43
40
37
34
31
28
25
22
19
16
173
170
13
10
7
167
4
-1
EOF
